15 200
0 0 70 70 0 0 1351 0 0 0
1 20 103 69 30 33 502 90 0 31
2 41 109 71 20 39 606 0 0 201
3 25 112 67 10 178 818 90 0 172
4 80 113 71 10 123 503 90 0 85
5 169 105 110 20 418 783 90 0 59
6 96 94 105 10 468 916 90 0 149
7 130 94 104 10 500 1066 90 0 28
8 31 113 69 -30 149 662 90 20 0
9 201 109 71 -20 39 606 90 41 0
10 172 111 66 -10 348 829 90 25 0
11 85 112 71 -10 42 685 90 80 0
12 59 99 108 -20 752 1192 90 169 0
13 149 91 95 -10 761 1229 90 96 0
14 28 90 104 -10 657 1098 90 130 0

